Problem:    vrptw
Rows:       148
Columns:    147 (126 integer, 126 binary)
Non-zeros:  921
Status:     INTEGER OPTIMAL
Objective:  Time = 715 (MINimum)

   No.   Row name        Activity     Lower bound   Upper bound
------ ------------    ------------- ------------- -------------
     1 ServeAllOnlyOnce2[1]
                                   1             1             = 
     2 ServeAllOnlyOnce2[2]
                                   1             1             = 
     3 ServeAllOnlyOnce2[3]
                                   1             1             = 
     4 ServeAllOnlyOnce2[4]
                                   1             1             = 
     5 ServeAllOnlyOnce2[5]
                                   1             1             = 
     6 ServeAllOnlyOnce2[6]
                                   1             1             = 
     7 LeaveDepot[1]
                                   1             1             = 
     8 LeaveDepot[2]
                                   1             1             = 
     9 LeaveDepot[3]
                                   1             1             = 
    10 ArriveAtDepot[1]
                                   1             1             = 
    11 ArriveAtDepot[2]
                                   1             1             = 
    12 ArriveAtDepot[3]
                                   1             1             = 
    13 EnsureFlow[1,1]
                                   0            -0             = 
    14 EnsureFlow[1,2]
                                   0            -0             = 
    15 EnsureFlow[1,3]
                                   0            -0             = 
    16 EnsureFlow[2,1]
                                   0            -0             = 
    17 EnsureFlow[2,2]
                                   0            -0             = 
    18 EnsureFlow[2,3]
                                   0            -0             = 
    19 EnsureFlow[3,1]
                                   0            -0             = 
    20 EnsureFlow[3,2]
                                   0            -0             = 
    21 EnsureFlow[3,3]
                                   0            -0             = 
    22 EnsureFlow[4,1]
                                   0            -0             = 
    23 EnsureFlow[4,2]
                                   0            -0             = 
    24 EnsureFlow[4,3]
                                   0            -0             = 
    25 EnsureFlow[5,1]
                                   0            -0             = 
    26 EnsureFlow[5,2]
                                   0            -0             = 
    27 EnsureFlow[5,3]
                                   0            -0             = 
    28 EnsureFlow[6,1]
                                   0            -0             = 
    29 EnsureFlow[6,2]
                                   0            -0             = 
    30 EnsureFlow[6,3]
                                   0            -0             = 
    31 EnsureFlow[0,1]
                                   0            -0             = 
    32 EnsureFlow[0,2]
                                   0            -0             = 
    33 EnsureFlow[0,3]
                                   0            -0             = 
    34 CapacityConstraint[1]
                                  25                          40 
    35 CapacityConstraint[2]
                                  50                          50 
    36 CapacityConstraint[3]
                                  90                         100 
    37 CalcElapsedTimeWhenRouteTaken[1,1,2]
                                 -60                        4010 
    38 CalcElapsedTimeWhenRouteTaken[1,1,3]
                                 -50                        3990 
    39 CalcElapsedTimeWhenRouteTaken[1,1,4]
                                 -80                        4045 
    40 CalcElapsedTimeWhenRouteTaken[1,1,5]
                                -180                        4030 
    41 CalcElapsedTimeWhenRouteTaken[1,1,6]
                                -115                        4050 
    42 CalcElapsedTimeWhenRouteTaken[1,2,1]
                                  60                        4014 
    43 CalcElapsedTimeWhenRouteTaken[1,2,3]
                                  10                        3979 
    44 CalcElapsedTimeWhenRouteTaken[1,2,4]
                                 -20                        4059 
    45 CalcElapsedTimeWhenRouteTaken[1,2,5]
                                -120                        3999 
    46 CalcElapsedTimeWhenRouteTaken[1,2,6]
                                 -55                        4029 
    47 CalcElapsedTimeWhenRouteTaken[1,3,1]
                                  50                        3993 
    48 CalcElapsedTimeWhenRouteTaken[1,3,2]
                                 -10                        3978 
    49 CalcElapsedTimeWhenRouteTaken[1,3,4]
                                 -30                        4078 
    50 CalcElapsedTimeWhenRouteTaken[1,3,5]
                                -130                        4098 
    51 CalcElapsedTimeWhenRouteTaken[1,3,6]
                                 -65                        4108 
    52 CalcElapsedTimeWhenRouteTaken[1,4,1]
                                  80                        4047 
    53 CalcElapsedTimeWhenRouteTaken[1,4,2]
                                  20                        4057 
    54 CalcElapsedTimeWhenRouteTaken[1,4,3]
                                  30                        4077 
    55 CalcElapsedTimeWhenRouteTaken[1,4,5]
                                -100                        4082 
    56 CalcElapsedTimeWhenRouteTaken[1,4,6]
                                 -35                        4117 
    57 CalcElapsedTimeWhenRouteTaken[1,5,1]
                                 180                        4036 
    58 CalcElapsedTimeWhenRouteTaken[1,5,2]
                                 120                        4001 
    59 CalcElapsedTimeWhenRouteTaken[1,5,3]
                                 130                        4101 
    60 CalcElapsedTimeWhenRouteTaken[1,5,4]
                                 100                        4086 
    61 CalcElapsedTimeWhenRouteTaken[1,5,6]
                                  65                        4021 
    62 CalcElapsedTimeWhenRouteTaken[1,6,1]
                                 115                        4057 
    63 CalcElapsedTimeWhenRouteTaken[1,6,2]
                                  55                        4032 
    64 CalcElapsedTimeWhenRouteTaken[1,6,3]
                                  65                        4112 
    65 CalcElapsedTimeWhenRouteTaken[1,6,4]
                                  35                        4122 
    66 CalcElapsedTimeWhenRouteTaken[1,6,5]
                                 -65                        4022 
    67 CalcElapsedTimeWhenRouteTaken[2,1,2]
                                 -60                        4010 
    68 CalcElapsedTimeWhenRouteTaken[2,1,3]
                                 -50                        3990 
    69 CalcElapsedTimeWhenRouteTaken[2,1,4]
                                 -80                        4045 
    70 CalcElapsedTimeWhenRouteTaken[2,1,5]
                                -180                        4030 
    71 CalcElapsedTimeWhenRouteTaken[2,1,6]
                                -115                        4050 
    72 CalcElapsedTimeWhenRouteTaken[2,2,1]
                                  60                        4014 
    73 CalcElapsedTimeWhenRouteTaken[2,2,3]
                                  10                        3979 
    74 CalcElapsedTimeWhenRouteTaken[2,2,4]
                                 -20                        4059 
    75 CalcElapsedTimeWhenRouteTaken[2,2,5]
                                -120                        3999 
    76 CalcElapsedTimeWhenRouteTaken[2,2,6]
                                 -55                        4029 
    77 CalcElapsedTimeWhenRouteTaken[2,3,1]
                                  50                        3993 
    78 CalcElapsedTimeWhenRouteTaken[2,3,2]
                                 -10                        3978 
    79 CalcElapsedTimeWhenRouteTaken[2,3,4]
                                 -30                        4078 
    80 CalcElapsedTimeWhenRouteTaken[2,3,5]
                                4020                        4098 
    81 CalcElapsedTimeWhenRouteTaken[2,3,6]
                                 -65                        4108 
    82 CalcElapsedTimeWhenRouteTaken[2,4,1]
                                  80                        4047 
    83 CalcElapsedTimeWhenRouteTaken[2,4,2]
                                  20                        4057 
    84 CalcElapsedTimeWhenRouteTaken[2,4,3]
                                  30                        4077 
    85 CalcElapsedTimeWhenRouteTaken[2,4,5]
                                -100                        4082 
    86 CalcElapsedTimeWhenRouteTaken[2,4,6]
                                 -35                        4117 
    87 CalcElapsedTimeWhenRouteTaken[2,5,1]
                                 180                        4036 
    88 CalcElapsedTimeWhenRouteTaken[2,5,2]
                                 120                        4001 
    89 CalcElapsedTimeWhenRouteTaken[2,5,3]
                                 130                        4101 
    90 CalcElapsedTimeWhenRouteTaken[2,5,4]
                                 100                        4086 
    91 CalcElapsedTimeWhenRouteTaken[2,5,6]
                                  65                        4021 
    92 CalcElapsedTimeWhenRouteTaken[2,6,1]
                                 115                        4057 
    93 CalcElapsedTimeWhenRouteTaken[2,6,2]
                                  55                        4032 
    94 CalcElapsedTimeWhenRouteTaken[2,6,3]
                                  65                        4112 
    95 CalcElapsedTimeWhenRouteTaken[2,6,4]
                                  35                        4122 
    96 CalcElapsedTimeWhenRouteTaken[2,6,5]
                                 -65                        4022 
    97 CalcElapsedTimeWhenRouteTaken[3,1,2]
                                 -60                        4010 
    98 CalcElapsedTimeWhenRouteTaken[3,1,3]
                                 -50                        3990 
    99 CalcElapsedTimeWhenRouteTaken[3,1,4]
                                4045                        4045 
   100 CalcElapsedTimeWhenRouteTaken[3,1,5]
                                -180                        4030 
   101 CalcElapsedTimeWhenRouteTaken[3,1,6]
                                -138                        4050 
   102 CalcElapsedTimeWhenRouteTaken[3,2,1]
                                  60                        4014 
   103 CalcElapsedTimeWhenRouteTaken[3,2,3]
                                  10                        3979 
   104 CalcElapsedTimeWhenRouteTaken[3,2,4]
                                 -45                        4059 
   105 CalcElapsedTimeWhenRouteTaken[3,2,5]
                                -120                        3999 
   106 CalcElapsedTimeWhenRouteTaken[3,2,6]
                                 -78                        4029 
   107 CalcElapsedTimeWhenRouteTaken[3,3,1]
                                  50                        3993 
   108 CalcElapsedTimeWhenRouteTaken[3,3,2]
                                 -10                        3978 
   109 CalcElapsedTimeWhenRouteTaken[3,3,4]
                                 -55                        4078 
   110 CalcElapsedTimeWhenRouteTaken[3,3,5]
                                -130                        4098 
   111 CalcElapsedTimeWhenRouteTaken[3,3,6]
                                 -88                        4108 
   112 CalcElapsedTimeWhenRouteTaken[3,4,1]
                                 105                        4047 
   113 CalcElapsedTimeWhenRouteTaken[3,4,2]
                                  45                        4057 
   114 CalcElapsedTimeWhenRouteTaken[3,4,3]
                                  55                        4077 
   115 CalcElapsedTimeWhenRouteTaken[3,4,5]
                                 -75                        4082 
   116 CalcElapsedTimeWhenRouteTaken[3,4,6]
                                4117                        4117 
   117 CalcElapsedTimeWhenRouteTaken[3,5,1]
                                 180                        4036 
   118 CalcElapsedTimeWhenRouteTaken[3,5,2]
                                 120                        4001 
   119 CalcElapsedTimeWhenRouteTaken[3,5,3]
                                 130                        4101 
   120 CalcElapsedTimeWhenRouteTaken[3,5,4]
                                  75                        4086 
   121 CalcElapsedTimeWhenRouteTaken[3,5,6]
                                  42                        4021 
   122 CalcElapsedTimeWhenRouteTaken[3,6,1]
                                 138                        4057 
   123 CalcElapsedTimeWhenRouteTaken[3,6,2]
                                  78                        4032 
   124 CalcElapsedTimeWhenRouteTaken[3,6,3]
                                  88                        4112 
   125 CalcElapsedTimeWhenRouteTaken[3,6,4]
                                  33                        4122 
   126 CalcElapsedTimeWhenRouteTaken[3,6,5]
                                 -42                        4022 
   127 TimeWindows[1,1]
                                  20            20           100 
   128 TimeWindows[1,2]
                                  80            80           110 
   129 TimeWindows[1,3]
                                  70            70            90 
   130 TimeWindows[1,4]
                                 100           100           150 
   131 TimeWindows[1,5]
                                 200           200           250 
   132 TimeWindows[1,6]
                                 135           135           165 
   133 TimeWindows[1,0]
                                   0             0           300 
   134 TimeWindows[2,1]
                                  20            20           100 
   135 TimeWindows[2,2]
                                  80            80           110 
   136 TimeWindows[2,3]
                                  70            70            90 
   137 TimeWindows[2,4]
                                 100           100           150 
   138 TimeWindows[2,5]
                                 200           200           250 
   139 TimeWindows[2,6]
                                 135           135           165 
   140 TimeWindows[2,0]
                                   0             0           300 
   141 TimeWindows[3,1]
                                  20            20           100 
   142 TimeWindows[3,2]
                                  80            80           110 
   143 TimeWindows[3,3]
                                  70            70            90 
   144 TimeWindows[3,4]
                                 125           100           150 
   145 TimeWindows[3,5]
                                 200           200           250 
   146 TimeWindows[3,6]
                                 158           135           165 
   147 TimeWindows[3,0]
                                   0             0           300 
   148 Time                      715                             

   No. Column name       Activity     Lower bound   Upper bound
------ ------------    ------------- ------------- -------------
     1 TakeRoute[1,2,1]
                    *              0             0             1 
     2 TakeRoute[1,3,1]
                    *              0             0             1 
     3 TakeRoute[1,4,1]
                    *              0             0             1 
     4 TakeRoute[1,5,1]
                    *              0             0             1 
     5 TakeRoute[1,6,1]
                    *              0             0             1 
     6 TakeRoute[1,0,1]
                    *              0             0             1 
     7 TakeRoute[2,2,1]
                    *              0             0             1 
     8 TakeRoute[2,3,1]
                    *              0             0             1 
     9 TakeRoute[2,4,1]
                    *              0             0             1 
    10 TakeRoute[2,5,1]
                    *              0             0             1 
    11 TakeRoute[2,6,1]
                    *              0             0             1 
    12 TakeRoute[2,0,1]
                    *              0             0             1 
    13 TakeRoute[3,2,1]
                    *              0             0             1 
    14 TakeRoute[3,3,1]
                    *              0             0             1 
    15 TakeRoute[3,4,1]
                    *              0             0             1 
    16 TakeRoute[3,5,1]
                    *              0             0             1 
    17 TakeRoute[3,6,1]
                    *              0             0             1 
    18 TakeRoute[3,0,1]
                    *              1             0             1 
    19 TakeRoute[1,1,2]
                    *              0             0             1 
    20 TakeRoute[1,3,2]
                    *              0             0             1 
    21 TakeRoute[1,4,2]
                    *              0             0             1 
    22 TakeRoute[1,5,2]
                    *              0             0             1 
    23 TakeRoute[1,6,2]
                    *              0             0             1 
    24 TakeRoute[1,0,2]
                    *              1             0             1 
    25 TakeRoute[2,1,2]
                    *              0             0             1 
    26 TakeRoute[2,3,2]
                    *              0             0             1 
    27 TakeRoute[2,4,2]
                    *              0             0             1 
    28 TakeRoute[2,5,2]
                    *              0             0             1 
    29 TakeRoute[2,6,2]
                    *              0             0             1 
    30 TakeRoute[2,0,2]
                    *              0             0             1 
    31 TakeRoute[3,1,2]
                    *              0             0             1 
    32 TakeRoute[3,3,2]
                    *              0             0             1 
    33 TakeRoute[3,4,2]
                    *              0             0             1 
    34 TakeRoute[3,5,2]
                    *              0             0             1 
    35 TakeRoute[3,6,2]
                    *              0             0             1 
    36 TakeRoute[3,0,2]
                    *              0             0             1 
    37 TakeRoute[1,1,3]
                    *              0             0             1 
    38 TakeRoute[1,2,3]
                    *              0             0             1 
    39 TakeRoute[1,4,3]
                    *              0             0             1 
    40 TakeRoute[1,5,3]
                    *              0             0             1 
    41 TakeRoute[1,6,3]
                    *              0             0             1 
    42 TakeRoute[1,0,3]
                    *              0             0             1 
    43 TakeRoute[2,1,3]
                    *              0             0             1 
    44 TakeRoute[2,2,3]
                    *              0             0             1 
    45 TakeRoute[2,4,3]
                    *              0             0             1 
    46 TakeRoute[2,5,3]
                    *              0             0             1 
    47 TakeRoute[2,6,3]
                    *              0             0             1 
    48 TakeRoute[2,0,3]
                    *              1             0             1 
    49 TakeRoute[3,1,3]
                    *              0             0             1 
    50 TakeRoute[3,2,3]
                    *              0             0             1 
    51 TakeRoute[3,4,3]
                    *              0             0             1 
    52 TakeRoute[3,5,3]
                    *              0             0             1 
    53 TakeRoute[3,6,3]
                    *              0             0             1 
    54 TakeRoute[3,0,3]
                    *              0             0             1 
    55 TakeRoute[1,1,4]
                    *              0             0             1 
    56 TakeRoute[1,2,4]
                    *              0             0             1 
    57 TakeRoute[1,3,4]
                    *              0             0             1 
    58 TakeRoute[1,5,4]
                    *              0             0             1 
    59 TakeRoute[1,6,4]
                    *              0             0             1 
    60 TakeRoute[1,0,4]
                    *              0             0             1 
    61 TakeRoute[2,1,4]
                    *              0             0             1 
    62 TakeRoute[2,2,4]
                    *              0             0             1 
    63 TakeRoute[2,3,4]
                    *              0             0             1 
    64 TakeRoute[2,5,4]
                    *              0             0             1 
    65 TakeRoute[2,6,4]
                    *              0             0             1 
    66 TakeRoute[2,0,4]
                    *              0             0             1 
    67 TakeRoute[3,1,4]
                    *              1             0             1 
    68 TakeRoute[3,2,4]
                    *              0             0             1 
    69 TakeRoute[3,3,4]
                    *              0             0             1 
    70 TakeRoute[3,5,4]
                    *              0             0             1 
    71 TakeRoute[3,6,4]
                    *              0             0             1 
    72 TakeRoute[3,0,4]
                    *              0             0             1 
    73 TakeRoute[1,1,5]
                    *              0             0             1 
    74 TakeRoute[1,2,5]
                    *              0             0             1 
    75 TakeRoute[1,3,5]
                    *              0             0             1 
    76 TakeRoute[1,4,5]
                    *              0             0             1 
    77 TakeRoute[1,6,5]
                    *              0             0             1 
    78 TakeRoute[1,0,5]
                    *              0             0             1 
    79 TakeRoute[2,1,5]
                    *              0             0             1 
    80 TakeRoute[2,2,5]
                    *              0             0             1 
    81 TakeRoute[2,3,5]
                    *              1             0             1 
    82 TakeRoute[2,4,5]
                    *              0             0             1 
    83 TakeRoute[2,6,5]
                    *              0             0             1 
    84 TakeRoute[2,0,5]
                    *              0             0             1 
    85 TakeRoute[3,1,5]
                    *              0             0             1 
    86 TakeRoute[3,2,5]
                    *              0             0             1 
    87 TakeRoute[3,3,5]
                    *              0             0             1 
    88 TakeRoute[3,4,5]
                    *              0             0             1 
    89 TakeRoute[3,6,5]
                    *              0             0             1 
    90 TakeRoute[3,0,5]
                    *              0             0             1 
    91 TakeRoute[1,1,6]
                    *              0             0             1 
    92 TakeRoute[1,2,6]
                    *              0             0             1 
    93 TakeRoute[1,3,6]
                    *              0             0             1 
    94 TakeRoute[1,4,6]
                    *              0             0             1 
    95 TakeRoute[1,5,6]
                    *              0             0             1 
    96 TakeRoute[1,0,6]
                    *              0             0             1 
    97 TakeRoute[2,1,6]
                    *              0             0             1 
    98 TakeRoute[2,2,6]
                    *              0             0             1 
    99 TakeRoute[2,3,6]
                    *              0             0             1 
   100 TakeRoute[2,4,6]
                    *              0             0             1 
   101 TakeRoute[2,5,6]
                    *              0             0             1 
   102 TakeRoute[2,0,6]
                    *              0             0             1 
   103 TakeRoute[3,1,6]
                    *              0             0             1 
   104 TakeRoute[3,2,6]
                    *              0             0             1 
   105 TakeRoute[3,3,6]
                    *              0             0             1 
   106 TakeRoute[3,4,6]
                    *              1             0             1 
   107 TakeRoute[3,5,6]
                    *              0             0             1 
   108 TakeRoute[3,0,6]
                    *              0             0             1 
   109 TakeRoute[1,1,0]
                    *              0             0             1 
   110 TakeRoute[1,2,0]
                    *              1             0             1 
   111 TakeRoute[1,3,0]
                    *              0             0             1 
   112 TakeRoute[1,4,0]
                    *              0             0             1 
   113 TakeRoute[1,5,0]
                    *              0             0             1 
   114 TakeRoute[1,6,0]
                    *              0             0             1 
   115 TakeRoute[2,1,0]
                    *              0             0             1 
   116 TakeRoute[2,2,0]
                    *              0             0             1 
   117 TakeRoute[2,3,0]
                    *              0             0             1 
   118 TakeRoute[2,4,0]
                    *              0             0             1 
   119 TakeRoute[2,5,0]
                    *              1             0             1 
   120 TakeRoute[2,6,0]
                    *              0             0             1 
   121 TakeRoute[3,1,0]
                    *              0             0             1 
   122 TakeRoute[3,2,0]
                    *              0             0             1 
   123 TakeRoute[3,3,0]
                    *              0             0             1 
   124 TakeRoute[3,4,0]
                    *              0             0             1 
   125 TakeRoute[3,5,0]
                    *              0             0             1 
   126 TakeRoute[3,6,0]
                    *              1             0             1 
   127 StartService[1,2]
                                  80             0               
   128 StartService[1,1]
                                  20             0               
   129 StartService[1,3]
                                  70             0               
   130 StartService[1,4]
                                 100             0               
   131 StartService[1,5]
                                 200             0               
   132 StartService[1,6]
                                 135             0               
   133 StartService[2,2]
                                  80             0               
   134 StartService[2,1]
                                  20             0               
   135 StartService[2,3]
                                  70             0               
   136 StartService[2,4]
                                 100             0               
   137 StartService[2,5]
                                 200             0               
   138 StartService[2,6]
                                 135             0               
   139 StartService[3,2]
                                  80             0               
   140 StartService[3,1]
                                  20             0               
   141 StartService[3,3]
                                  70             0               
   142 StartService[3,4]
                                 125             0               
   143 StartService[3,5]
                                 200             0               
   144 StartService[3,6]
                                 158             0               
   145 StartService[1,0]
                                   0             0               
   146 StartService[2,0]
                                   0             0               
   147 StartService[3,0]
                                   0             0               

Integer feasibility conditions:

KKT.PE: max.abs.err = 0.00e+00 on row 0
        max.rel.err = 0.00e+00 on row 0
        High quality

KKT.PB: max.abs.err = 0.00e+00 on row 0
        max.rel.err = 0.00e+00 on row 0
        High quality

End of output
